NAME: cities_5_17
TYPE: TSP
COMMENT: Generated from CSV
DIMENSION: 5
EDGE_WEIGHT_TYPE: EUC_2D
NODE_COORD_SECTION
1 32.23938352516793 95.13873868562972
2 30.00301349035461 37.14954084341363
3 19.528406801966568 50.72310707784061
4 28.038358462316594 50.67843807103792
5 31.520642027813807 88.45942529335214
EOF
